c A SAT instance generated from a 3-CNF formula that had 26 clauses and 13 variables
p cnf 13 26
-10 5 8 0
-3 -6 8 0
13 -9 -3 0
-1 5 2 0
-2 12 5 0
8 -6 -4 0
-3 1 11 0
-7 -8 2 0
13 2 -12 0
6 -12 -13 0
5 4 13 0
-4 2 -1 0
1 -3 -11 0
-9 2 6 0
-11 -7 6 0
-2 -1 10 0
5 2 -7 0
-11 12 -13 0
6 -1 -4 0
-7 -12 6 0
4 -13 6 0
-13 8 -12 0
-3 10 1 0
7 10 -12 0
13 -8 -5 0
7 -2 -3 0
